
Gurobi 9.1.2 (win64) logging started Sat Dec  4 16:42:11 2021

Gurobi Optimizer version 9.1.2 build v9.1.2rc0 (win64)
Thread count: 8 physical cores, 8 logical processors, using up to 8 threads
Optimize a model with 1 rows, 10 columns and 7 nonzeros
Model fingerprint: 0x801e2cfc
Variable types: 1 continuous, 9 integer (9 binary)
Coefficient statistics:
  Matrix range     [1e+00, 7e+00]
  Objective range  [1e+00, 1e+00]
  Bounds range     [1e+06, 1e+06]
  RHS range        [5e+00, 5e+00]
Presolve removed 0 rows and 1 columns
Presolve time: 0.00s
Presolved: 1 rows, 9 columns, 6 nonzeros
Variable types: 1 continuous, 8 integer (8 binary)

Root simplex log...

Iteration    Objective       Primal Inf.    Dual Inf.      Time
       0   -1.0000000e+06   3.348627e+04   0.000000e+00     14s
       2   -5.2295925e+00   0.000000e+00   0.000000e+00     14s

Root relaxation: objective -5.229592e+00, 2 iterations, 0.00 seconds

    Nodes    |    Current Node    |     Objective Bounds      |     Work
 Expl Unexpl |  Obj  Depth IntInf | Incumbent    BestBd   Gap | It/Node Time

     0     0   -5.22959    0    1          -   -5.22959      -     -   14s
H    0     0                       0.5885919   -5.22959   988%     -   14s
H    0     0                       0.0000000   -5.22959      -     -   14s
     0     0   -2.57313    0    3    0.00000   -2.57313      -     -   14s
     0     0     cutoff    0         0.00000    0.00000  0.00%     -   14s

Cutting planes:
  Cover: 1
  Implied bound: 1
  MIR: 2
  Relax-and-lift: 1
  Lazy constraints: 4

Explored 1 nodes (9 simplex iterations) in 14.62 seconds
Thread count was 8 (of 8 available processors)

Solution count 2: 0 0.588592 

Optimal solution found (tolerance 1.00e-04)
Best objective 0.000000000000e+00, best bound 0.000000000000e+00, gap 0.0000%

User-callback calls 76, time in user-callback 18.27 sec
